NAME : kroA100
COMMENT : Optimum tour for kroA100 (21282)
TYPE : TOUR
DIMENSION : 100
TOUR_SECTION
77
51
4
36
32
75
12
94
81
84
67
72
49
43
1
53
39
63
68
80
24
86
50
60
57
66
27
92
46
0
62
5
48
89
18
74
91
7
41
88
30
79
55
96
3
64
25
65
69
21
93
15
87
52
78
17
23
37
98
35
83
9
71
20
73
58
16
14
10
31
44
90
97
22
76
59
61
34
85
26
11
19
56
8
6
54
82
33
28
45
42
2
13
70
40
99
47
29
38
95
-1
EOF